65
28
87
49
47
95
4
16
81
68
0
80
40
73
57
6
50
19
60
70
76
52
37
25
48
78
13
63
75
1
44
96
58
31
64
39
22
27
5
98
2
56
12
61
71
79
77
53
84
67
11
35
45
21
91
15
55
74
33
97
38
66
7
17
93
86
29
94
85
36
51
23
18
42
69
89
20
8
82
90
72
92
9
32
54
83
59
3
34
99
14
46
24
41
30
10
88
26
43
62
65
